; DUP2 SLOAD DUP1 SWAP3 SWAP2 SWAP1 => SWAP1 DUP1 SLOAD SWAP2 DUP3
(set-option :produce-proofs true)
; 
(set-info :status unknown)
(declare-fun storage_t ((_ BitVec 256) (_ BitVec 256) (_ BitVec 256) Int (_ BitVec 256)) (_ BitVec 256))
(declare-fun storage_s ((_ BitVec 256) (_ BitVec 256) (_ BitVec 256) Int (_ BitVec 256)) (_ BitVec 256))
(declare-fun exc_halt_t (Int) Bool)
(declare-fun exc_halt_s (Int) Bool)
(declare-fun stack_t ((_ BitVec 256) (_ BitVec 256) (_ BitVec 256) Int (_ BitVec 6)) (_ BitVec 256))
(declare-fun stack_s ((_ BitVec 256) (_ BitVec 256) (_ BitVec 256) Int (_ BitVec 6)) (_ BitVec 256))
(declare-fun sc_t (Int) (_ BitVec 6))
(declare-fun sc_s (Int) (_ BitVec 6))
(declare-fun used_gas_t ((_ BitVec 256) (_ BitVec 256) (_ BitVec 256) Int) Int)
(declare-fun used_gas_s ((_ BitVec 256) (_ BitVec 256) (_ BitVec 256) Int) Int)
(assert
 (exists ((x_0 (_ BitVec 256)) (x_1 (_ BitVec 256)) (x_SLOAD_0 (_ BitVec 256)) )(let (($x8732 (forall ((w (_ BitVec 256)) )(let ((?x6893 (storage_t x_0 x_1 x_SLOAD_0 5 w)))
 (let ((?x9690 (storage_s x_0 x_1 x_SLOAD_0 6 w)))
 (= ?x9690 ?x6893))))
 ))
 (let (($x10311 (exc_halt_t 5)))
 (let (($x7121 (exc_halt_s 6)))
 (let (($x4790 (= $x7121 $x10311)))
 (let (($x9250 (forall ((n (_ BitVec 6)) )(let ((?x1849 (stack_t x_0 x_1 x_SLOAD_0 5 n)))
 (let ((?x8958 (stack_s x_0 x_1 x_SLOAD_0 6 n)))
 (let (($x9657 (= ?x8958 ?x1849)))
 (let ((?x10036 (sc_t 5)))
 (let (($x458 (bvsle ?x10036 n)))
 (or $x458 $x9657)))))))
 ))
 (let ((?x10036 (sc_t 5)))
 (let ((?x9114 (sc_s 6)))
 (let (($x6242 (= ?x9114 ?x10036)))
 (let ((?x272 (used_gas_t x_0 x_1 x_SLOAD_0 0)))
 (let ((?x6728 (used_gas_s x_0 x_1 x_SLOAD_0 0)))
 (let (($x9369 (= ?x6728 ?x272)))
 (let (($x5620 (forall ((w (_ BitVec 256)) )(let ((?x11148 (storage_t x_0 x_1 x_SLOAD_0 0 w)))
 (let ((?x9116 (storage_s x_0 x_1 x_SLOAD_0 0 w)))
 (= ?x9116 ?x11148))))
 ))
 (let (($x56 (exc_halt_t 0)))
 (let (($x57 (exc_halt_s 0)))
 (let (($x58 (= $x57 $x56)))
 (let (($x1113 (forall ((n (_ BitVec 6)) )(let ((?x9521 (stack_t x_0 x_1 x_SLOAD_0 0 n)))
 (let ((?x10148 (stack_s x_0 x_1 x_SLOAD_0 0 n)))
 (let (($x5464 (= ?x10148 ?x9521)))
 (let ((?x63 (sc_t 0)))
 (let (($x5202 (bvsle ?x63 n)))
 (or $x5202 $x5464)))))))
 ))
 (let ((?x63 (sc_t 0)))
 (let ((?x72 (sc_s 0)))
 (let (($x73 (= ?x72 ?x63)))
 (let (($x10266 (not (bvsle (_ bv0 6) (bvadd (_ bv61 6) (sc_t 4))))))
 (let (($x7854 (exc_halt_t 4)))
 (let (($x8123 (or (not (= ((_ extract 6 6) (bvadd (_ bv1 7) (concat (_ bv0 1) (sc_t 4)))) (_ bv0 1))) $x7854 $x10266)))
 (let (($x370 (forall ((w (_ BitVec 256)) )(let ((?x4705 (storage_t x_0 x_1 x_SLOAD_0 4 w)))
 (let ((?x6893 (storage_t x_0 x_1 x_SLOAD_0 5 w)))
 (= ?x6893 ?x4705))))
 ))
 (let (($x2199 (forall ((n (_ BitVec 6)) )(let ((?x9349 (stack_t x_0 x_1 x_SLOAD_0 4 n)))
 (let ((?x1849 (stack_t x_0 x_1 x_SLOAD_0 5 n)))
 (let ((?x7495 (sc_t 4)))
 (let ((?x1482 (bvadd (_ bv61 6) ?x7495)))
 (let (($x5040 (bvsle ?x1482 n)))
 (or $x5040 (= ?x1849 ?x9349))))))))
 ))
 (let (($x11345 (= (used_gas_t x_0 x_1 x_SLOAD_0 5) (+ 3 (used_gas_t x_0 x_1 x_SLOAD_0 4)))))
 (let ((?x7495 (sc_t 4)))
 (let ((?x9703 (bvadd (_ bv63 6) ?x7495)))
 (let ((?x5661 (stack_t x_0 x_1 x_SLOAD_0 4 ?x9703)))
 (let ((?x6202 (bvadd (_ bv62 6) ?x7495)))
 (let ((?x137 (stack_t x_0 x_1 x_SLOAD_0 4 ?x6202)))
 (let ((?x1482 (bvadd (_ bv61 6) ?x7495)))
 (let ((?x8412 (stack_t x_0 x_1 x_SLOAD_0 4 ?x1482)))
 (let (($x6881 (= $x7854 (or (exc_halt_t 3) (not (bvsle (_ bv0 6) (bvadd (_ bv61 6) (sc_t 3))))))))
 (let (($x3217 (forall ((w (_ BitVec 256)) )(let ((?x6103 (storage_t x_0 x_1 x_SLOAD_0 3 w)))
 (let ((?x4705 (storage_t x_0 x_1 x_SLOAD_0 4 w)))
 (= ?x4705 ?x6103))))
 ))
 (let (($x5399 (forall ((n (_ BitVec 6)) )(let ((?x5384 (stack_t x_0 x_1 x_SLOAD_0 3 n)))
 (let ((?x9349 (stack_t x_0 x_1 x_SLOAD_0 4 n)))
 (let ((?x10013 (sc_t 3)))
 (let ((?x142 (bvadd (_ bv61 6) ?x10013)))
 (let (($x10103 (bvsle ?x142 n)))
 (or $x10103 (= ?x9349 ?x5384))))))))
 ))
 (let ((?x10013 (sc_t 3)))
 (let (($x4539 (= ?x7495 ?x10013)))
 (let ((?x2053 (used_gas_t x_0 x_1 x_SLOAD_0 4)))
 (let (($x9131 (exc_halt_t 3)))
 (let (($x7924 (= $x9131 (or (exc_halt_t 2) (not (bvsle (_ bv0 6) (bvadd (_ bv63 6) (sc_t 2))))))))
 (let (($x711 (forall ((w (_ BitVec 256)) )(let ((?x5985 (storage_t x_0 x_1 x_SLOAD_0 2 w)))
 (let ((?x6103 (storage_t x_0 x_1 x_SLOAD_0 3 w)))
 (= ?x6103 ?x5985))))
 ))
 (let (($x2031 (forall ((n (_ BitVec 6)) )(let ((?x6198 (sc_t 2)))
 (let ((?x332 (bvadd (_ bv63 6) ?x6198)))
 (let (($x5079 (bvsle ?x332 n)))
 (let ((?x9610 (stack_t x_0 x_1 x_SLOAD_0 2 n)))
 (let ((?x5384 (stack_t x_0 x_1 x_SLOAD_0 3 n)))
 (let (($x758 (= ?x5384 ?x9610)))
 (or $x758 $x5079))))))))
 ))
 (let ((?x6198 (sc_t 2)))
 (let (($x6694 (= ?x10013 ?x6198)))
 (let ((?x3315 (used_gas_t x_0 x_1 x_SLOAD_0 3)))
 (let ((?x332 (bvadd (_ bv63 6) ?x6198)))
 (let ((?x11094 (stack_t x_0 x_1 x_SLOAD_0 2 ?x332)))
 (let ((?x6860 (bvadd (_ bv63 6) ?x10013)))
 (let ((?x6612 (stack_t x_0 x_1 x_SLOAD_0 3 ?x6860)))
 (let (($x3448 (not (= ((_ extract 6 6) (bvadd (_ bv1 7) (concat (_ bv0 1) (sc_t 1)))) (_ bv0 1)))))
 (let (($x3194 (exc_halt_t 1)))
 (let (($x3126 (not (bvsle (_ bv0 6) (bvadd (_ bv63 6) (sc_t 1))))))
 (let (($x10349 (exc_halt_t 2)))
 (let (($x4415 (forall ((w (_ BitVec 256)) )(let ((?x2606 (storage_t x_0 x_1 x_SLOAD_0 1 w)))
 (let ((?x5985 (storage_t x_0 x_1 x_SLOAD_0 2 w)))
 (= ?x5985 ?x2606))))
 ))
 (let (($x9455 (forall ((n (_ BitVec 6)) )(let ((?x6855 (sc_t 1)))
 (let ((?x7770 (bvadd (_ bv63 6) ?x6855)))
 (let (($x8114 (bvsle ?x7770 n)))
 (let ((?x535 (stack_t x_0 x_1 x_SLOAD_0 1 n)))
 (let ((?x9610 (stack_t x_0 x_1 x_SLOAD_0 2 n)))
 (let (($x308 (= ?x9610 ?x535)))
 (or $x308 $x8114))))))))
 ))
 (let (($x10355 (= ?x6198 (bvadd (_ bv1 6) (sc_t 1)))))
 (let ((?x2350 (used_gas_t x_0 x_1 x_SLOAD_0 2)))
 (let (($x8866 (= ?x2350 (+ 3 (used_gas_t x_0 x_1 x_SLOAD_0 1)))))
 (let ((?x6855 (sc_t 1)))
 (let ((?x7770 (bvadd (_ bv63 6) ?x6855)))
 (let ((?x3136 (stack_t x_0 x_1 x_SLOAD_0 1 ?x7770)))
 (let (($x675 (= $x3194 (or $x56 (not (bvsle (_ bv0 6) (bvadd (_ bv62 6) ?x63)))))))
 (let (($x4772 (forall ((w (_ BitVec 256)) )(let ((?x11148 (storage_t x_0 x_1 x_SLOAD_0 0 w)))
 (let ((?x2606 (storage_t x_0 x_1 x_SLOAD_0 1 w)))
 (= ?x2606 ?x11148))))
 ))
 (let (($x431 (forall ((n (_ BitVec 6)) )(let ((?x63 (sc_t 0)))
 (let ((?x5279 (bvadd (_ bv62 6) ?x63)))
 (let (($x8928 (bvsle ?x5279 n)))
 (let ((?x9521 (stack_t x_0 x_1 x_SLOAD_0 0 n)))
 (let ((?x535 (stack_t x_0 x_1 x_SLOAD_0 1 n)))
 (let (($x5167 (= ?x535 ?x9521)))
 (or $x5167 $x8928))))))))
 ))
 (let (($x7307 (= ?x6855 ?x63)))
 (let ((?x6280 (used_gas_t x_0 x_1 x_SLOAD_0 1)))
 (let (($x9766 (= ?x6280 (+ 3 ?x272))))
 (let ((?x7987 (bvadd (_ bv63 6) ?x63)))
 (let ((?x5654 (stack_t x_0 x_1 x_SLOAD_0 0 ?x7987)))
 (let ((?x9525 (bvadd (_ bv62 6) ?x6855)))
 (let ((?x1822 (stack_t x_0 x_1 x_SLOAD_0 1 ?x9525)))
 (let (($x6401 (= $x7121 (or (exc_halt_s 5) (not (bvsle (_ bv0 6) (bvadd (_ bv62 6) (sc_s 5))))))))
 (let (($x4516 (forall ((w (_ BitVec 256)) )(let ((?x10855 (storage_s x_0 x_1 x_SLOAD_0 5 w)))
 (let ((?x9690 (storage_s x_0 x_1 x_SLOAD_0 6 w)))
 (= ?x9690 ?x10855))))
 ))
 (let (($x2617 (forall ((n (_ BitVec 6)) )(let ((?x8324 (stack_s x_0 x_1 x_SLOAD_0 5 n)))
 (let ((?x8958 (stack_s x_0 x_1 x_SLOAD_0 6 n)))
 (let ((?x4319 (sc_s 5)))
 (let ((?x9678 (bvadd (_ bv62 6) ?x4319)))
 (let (($x2559 (bvsle ?x9678 n)))
 (or $x2559 (= ?x8958 ?x8324))))))))
 ))
 (let ((?x4319 (sc_s 5)))
 (let (($x9872 (= ?x9114 ?x4319)))
 (let (($x10866 (= (used_gas_s x_0 x_1 x_SLOAD_0 6) (+ 3 (used_gas_s x_0 x_1 x_SLOAD_0 5)))))
 (let ((?x8095 (bvadd (_ bv63 6) ?x4319)))
 (let ((?x5880 (stack_s x_0 x_1 x_SLOAD_0 5 ?x8095)))
 (let ((?x9678 (bvadd (_ bv62 6) ?x4319)))
 (let ((?x8143 (stack_s x_0 x_1 x_SLOAD_0 5 ?x9678)))
 (let (($x1862 (exc_halt_s 5)))
 (let (($x10061 (= $x1862 (or (exc_halt_s 4) (not (bvsle (_ bv0 6) (bvadd (_ bv61 6) (sc_s 4))))))))
 (let (($x10882 (forall ((w (_ BitVec 256)) )(let ((?x9819 (storage_s x_0 x_1 x_SLOAD_0 4 w)))
 (let ((?x10855 (storage_s x_0 x_1 x_SLOAD_0 5 w)))
 (= ?x10855 ?x9819))))
 ))
 (let (($x5779 (forall ((n (_ BitVec 6)) )(let ((?x9433 (sc_s 4)))
 (let ((?x8890 (bvadd (_ bv61 6) ?x9433)))
 (let (($x9016 (bvsle ?x8890 n)))
 (let ((?x11226 (stack_s x_0 x_1 x_SLOAD_0 4 n)))
 (let ((?x8324 (stack_s x_0 x_1 x_SLOAD_0 5 n)))
 (or (= ?x8324 ?x11226) $x9016)))))))
 ))
 (let ((?x9433 (sc_s 4)))
 (let (($x5582 (= ?x4319 ?x9433)))
 (let ((?x4490 (used_gas_s x_0 x_1 x_SLOAD_0 5)))
 (let ((?x11350 (bvadd (_ bv63 6) ?x9433)))
 (let ((?x3677 (stack_s x_0 x_1 x_SLOAD_0 4 ?x11350)))
 (let (($x9175 (exc_halt_s 4)))
 (let (($x1996 (= $x9175 (or (exc_halt_s 3) (not (bvsle (_ bv0 6) (bvadd (_ bv60 6) (sc_s 3))))))))
 (let (($x11561 (forall ((w (_ BitVec 256)) )(let ((?x10904 (storage_s x_0 x_1 x_SLOAD_0 3 w)))
 (let ((?x9819 (storage_s x_0 x_1 x_SLOAD_0 4 w)))
 (= ?x9819 ?x10904))))
 ))
 (let (($x4612 (forall ((n (_ BitVec 6)) )(let ((?x1937 (stack_s x_0 x_1 x_SLOAD_0 3 n)))
 (let ((?x11226 (stack_s x_0 x_1 x_SLOAD_0 4 n)))
 (let (($x11645 (= ?x11226 ?x1937)))
 (let ((?x3851 (sc_s 3)))
 (let ((?x9183 (bvadd (_ bv60 6) ?x3851)))
 (let (($x11556 (bvsle ?x9183 n)))
 (or $x11556 $x11645))))))))
 ))
 (let ((?x3851 (sc_s 3)))
 (let (($x10759 (= ?x9433 ?x3851)))
 (let ((?x7517 (used_gas_s x_0 x_1 x_SLOAD_0 4)))
 (let (($x11978 (= ?x7517 (+ 3 (used_gas_s x_0 x_1 x_SLOAD_0 3)))))
 (let ((?x7986 (bvadd (_ bv62 6) ?x3851)))
 (let ((?x1875 (stack_s x_0 x_1 x_SLOAD_0 3 ?x7986)))
 (let ((?x3745 (bvadd (_ bv62 6) ?x9433)))
 (let ((?x4034 (stack_s x_0 x_1 x_SLOAD_0 4 ?x3745)))
 (let ((?x11927 (bvadd (_ bv61 6) ?x3851)))
 (let ((?x1237 (stack_s x_0 x_1 x_SLOAD_0 3 ?x11927)))
 (let ((?x8890 (bvadd (_ bv61 6) ?x9433)))
 (let ((?x10777 (stack_s x_0 x_1 x_SLOAD_0 4 ?x8890)))
 (let ((?x6454 (bvadd (_ bv63 6) ?x3851)))
 (let ((?x2950 (stack_s x_0 x_1 x_SLOAD_0 3 ?x6454)))
 (let (($x11851 (not (= ((_ extract 6 6) (bvadd (_ bv1 7) (concat (_ bv0 1) (sc_s 2)))) (_ bv0 1)))))
 (let (($x10052 (exc_halt_s 2)))
 (let (($x4999 (not (bvsle (_ bv0 6) (bvadd (_ bv63 6) (sc_s 2))))))
 (let (($x8103 (exc_halt_s 3)))
 (let (($x10706 (forall ((w (_ BitVec 256)) )(let ((?x5489 (storage_s x_0 x_1 x_SLOAD_0 2 w)))
 (let ((?x10904 (storage_s x_0 x_1 x_SLOAD_0 3 w)))
 (= ?x10904 ?x5489))))
 ))
 (let (($x5219 (forall ((n (_ BitVec 6)) )(let ((?x2272 (sc_s 2)))
 (let ((?x11939 (bvadd (_ bv63 6) ?x2272)))
 (let (($x10973 (bvsle ?x11939 n)))
 (let ((?x11044 (stack_s x_0 x_1 x_SLOAD_0 2 n)))
 (let ((?x1937 (stack_s x_0 x_1 x_SLOAD_0 3 n)))
 (let (($x5723 (= ?x1937 ?x11044)))
 (or $x5723 $x10973))))))))
 ))
 (let (($x4308 (= ?x3851 (bvadd (_ bv1 6) (sc_s 2)))))
 (let ((?x8740 (used_gas_s x_0 x_1 x_SLOAD_0 3)))
 (let (($x5181 (= ?x8740 (+ 3 (used_gas_s x_0 x_1 x_SLOAD_0 2)))))
 (let ((?x2272 (sc_s 2)))
 (let ((?x11939 (bvadd (_ bv63 6) ?x2272)))
 (let ((?x9793 (stack_s x_0 x_1 x_SLOAD_0 2 ?x11939)))
 (let (($x979 (= $x10052 (or (exc_halt_s 1) (not (bvsle (_ bv0 6) (bvadd (_ bv63 6) (sc_s 1))))))))
 (let (($x6545 (forall ((w (_ BitVec 256)) )(let ((?x9567 (storage_s x_0 x_1 x_SLOAD_0 1 w)))
 (let ((?x5489 (storage_s x_0 x_1 x_SLOAD_0 2 w)))
 (= ?x5489 ?x9567))))
 ))
 (let (($x11190 (forall ((n (_ BitVec 6)) )(let ((?x9373 (stack_s x_0 x_1 x_SLOAD_0 1 n)))
 (let ((?x11044 (stack_s x_0 x_1 x_SLOAD_0 2 n)))
 (let (($x10091 (= ?x11044 ?x9373)))
 (let ((?x154 (sc_s 1)))
 (let ((?x7515 (bvadd (_ bv63 6) ?x154)))
 (let (($x7104 (bvsle ?x7515 n)))
 (or $x7104 $x10091))))))))
 ))
 (let ((?x154 (sc_s 1)))
 (let (($x151 (= ?x2272 ?x154)))
 (let ((?x263 (used_gas_s x_0 x_1 x_SLOAD_0 2)))
 (let ((?x7515 (bvadd (_ bv63 6) ?x154)))
 (let ((?x5774 (stack_s x_0 x_1 x_SLOAD_0 1 ?x7515)))
 (let (($x6190 (not (= ((_ extract 6 6) (bvadd (_ bv1 7) (concat (_ bv0 1) ?x72))) (_ bv0 1)))))
 (let (($x4619 (not (bvsle (_ bv0 6) (bvadd (_ bv62 6) ?x72)))))
 (let (($x8780 (exc_halt_s 1)))
 (let (($x7039 (= $x8780 (or $x57 $x4619 $x6190))))
 (let (($x11299 (forall ((w (_ BitVec 256)) )(let ((?x9116 (storage_s x_0 x_1 x_SLOAD_0 0 w)))
 (let ((?x9567 (storage_s x_0 x_1 x_SLOAD_0 1 w)))
 (= ?x9567 ?x9116))))
 ))
 (let (($x1010 (forall ((n (_ BitVec 6)) )(let ((?x72 (sc_s 0)))
 (let ((?x7101 (bvadd (_ bv62 6) ?x72)))
 (let (($x9570 (bvsle ?x7101 n)))
 (let ((?x10148 (stack_s x_0 x_1 x_SLOAD_0 0 n)))
 (let ((?x9373 (stack_s x_0 x_1 x_SLOAD_0 1 n)))
 (let (($x501 (= ?x9373 ?x10148)))
 (or $x501 $x9570))))))))
 ))
 (let (($x2608 (= ?x154 (bvadd (_ bv1 6) ?x72))))
 (let ((?x11582 (used_gas_s x_0 x_1 x_SLOAD_0 1)))
 (let (($x2058 (= ?x11582 (+ 3 ?x6728))))
 (let ((?x9361 (bvadd (_ bv63 6) ?x72)))
 (let ((?x9646 (stack_s x_0 x_1 x_SLOAD_0 0 ?x9361)))
 (let (($x6741 (= (stack_s x_0 x_1 x_SLOAD_0 1 ?x9361) ?x9646)))
 (let ((?x7101 (bvadd (_ bv62 6) ?x72)))
 (let ((?x11341 (stack_s x_0 x_1 x_SLOAD_0 0 ?x7101)))
 (let (($x4517 (forall ((w (_ BitVec 256)) )(let ((?x9234 (ite (= w (stack_s x_0 x_1 x_SLOAD_0 1 (bvadd (_ bv63 6) (sc_s 1)))) x_SLOAD_0 (_ bv0 256))))
 (let ((?x9116 (storage_s x_0 x_1 x_SLOAD_0 0 w)))
 (= ?x9116 ?x9234))))
 ))
 (let (($x9258 (= ?x6728 0)))
 (let (($x3623 (not $x57)))
 (let (($x8952 (= (stack_s x_0 x_1 x_SLOAD_0 0 (_ bv1 6)) x_1)))
 (let (($x5109 (= (stack_s x_0 x_1 x_SLOAD_0 0 (_ bv0 6)) x_0)))
 (let (($x10041 (= ?x72 (_ bv2 6))))
 (and $x10041 $x5109 $x8952 $x3623 $x9258 $x4517 (= ?x5774 ?x11341) (= (stack_s x_0 x_1 x_SLOAD_0 1 ?x7101) ?x11341) $x6741 $x2058 $x2608 $x1010 $x11299 $x7039 (= ?x9793 (storage_s x_0 x_1 x_SLOAD_0 1 ?x5774)) (= ?x263 (+ 200 ?x11582)) $x151 $x11190 $x6545 $x979 (= ?x2950 ?x9793) (= (stack_s x_0 x_1 x_SLOAD_0 3 ?x11939) ?x9793) $x5181 $x4308 $x5219 $x10706 (= $x8103 (or $x4999 $x10052 $x11851)) (= ?x3677 (stack_s x_0 x_1 x_SLOAD_0 3 (bvadd (_ bv60 6) ?x3851))) (= (stack_s x_0 x_1 x_SLOAD_0 4 (bvadd (_ bv60 6) ?x9433)) ?x2950) (= ?x10777 ?x1237) (= ?x4034 ?x1875) $x11978 $x10759 $x4612 $x11561 $x1996 (= ?x5880 ?x10777) (= (stack_s x_0 x_1 x_SLOAD_0 5 (bvadd (_ bv61 6) ?x4319)) ?x3677) (= ?x8143 ?x4034) (= ?x4490 (+ 3 ?x7517)) $x5582 $x5779 $x10882 $x10061 (= (stack_s x_0 x_1 x_SLOAD_0 6 (bvadd (_ bv63 6) ?x9114)) ?x8143) (= (stack_s x_0 x_1 x_SLOAD_0 6 (bvadd (_ bv62 6) ?x9114)) ?x5880) $x10866 $x9872 $x2617 $x4516 $x6401 (= ?x3136 (stack_t x_0 x_1 x_SLOAD_0 0 (bvadd (_ bv62 6) ?x63))) (= ?x1822 ?x5654) $x9766 $x7307 $x431 $x4772 $x675 (= ?x11094 ?x3136) (= (stack_t x_0 x_1 x_SLOAD_0 2 ?x7770) ?x3136) $x8866 $x10355 $x9455 $x4415 (= $x10349 (or $x3126 $x3194 $x3448)) (= ?x6612 (storage_t x_0 x_1 x_SLOAD_0 2 ?x11094)) (= ?x3315 (+ 200 ?x2350)) $x6694 $x2031 $x711 $x7924 (= ?x5661 (stack_t x_0 x_1 x_SLOAD_0 3 (bvadd (_ bv61 6) ?x10013))) (= ?x8412 ?x6612) (= ?x137 (stack_t x_0 x_1 x_SLOAD_0 3 (bvadd (_ bv62 6) ?x10013))) (= ?x2053 (+ 3 ?x3315)) $x4539 $x5399 $x3217 $x6881 (= (stack_t x_0 x_1 x_SLOAD_0 5 (bvadd (_ bv63 6) ?x10036)) ?x8412) (= (stack_t x_0 x_1 x_SLOAD_0 5 ?x1482) ?x8412) (= (stack_t x_0 x_1 x_SLOAD_0 5 ?x6202) ?x137) (= (stack_t x_0 x_1 x_SLOAD_0 5 ?x9703) ?x5661) $x11345 (= ?x10036 (bvadd (_ bv1 6) ?x7495)) $x2199 $x370 (= $x10311 $x8123) $x73 $x1113 $x58 $x5620 $x9369 (not (and $x6242 $x9250 $x4790 $x8732))))))))))))))))))))))))))))))))))))))))))))))))))))))))))))))))))))))))))))))))))))))))))))))))))))))))))))))))))))))))))))))))))))))))))))))))))))))))
 )
(check-sat)
(get-proof)
